; Benchmark for LTL-sketching problem
(set-logic QF_UF)
(set-info :status unknown)
(declare-fun z_1_0_0 () Bool)
(declare-fun z_0_0_0 () Bool)
(declare-fun x_0_! () Bool)
(declare-fun x_0_X () Bool)
(declare-fun x_0_F () Bool)
(declare-fun x_0_G () Bool)
(declare-fun z_1_1_0 () Bool)
(declare-fun z_0_1_0 () Bool)
(declare-fun z_1_2_0 () Bool)
(declare-fun z_0_2_0 () Bool)
(declare-fun z_1_3_0 () Bool)
(declare-fun z_0_3_0 () Bool)
(declare-fun z_1_4_0 () Bool)
(declare-fun z_0_4_0 () Bool)
(declare-fun z_1_5_0 () Bool)
(declare-fun z_0_5_0 () Bool)
(declare-fun z_1_6_0 () Bool)
(declare-fun z_0_6_0 () Bool)
(declare-fun z_1_7_0 () Bool)
(declare-fun z_0_7_0 () Bool)
(declare-fun z_1_8_0 () Bool)
(declare-fun z_0_8_0 () Bool)
(declare-fun z_1_9_0 () Bool)
(declare-fun z_0_9_0 () Bool)
(declare-fun z_1_10_0 () Bool)
(declare-fun z_0_10_0 () Bool)
(declare-fun z_1_10_1 () Bool)
(declare-fun z_0_10_1 () Bool)
(declare-fun z_1_10_2 () Bool)
(declare-fun z_0_10_2 () Bool)
(declare-fun z_1_11_0 () Bool)
(declare-fun z_0_11_0 () Bool)
(declare-fun z_1_11_1 () Bool)
(declare-fun z_0_11_1 () Bool)
(declare-fun z_1_11_2 () Bool)
(declare-fun z_0_11_2 () Bool)
(declare-fun z_1_11_3 () Bool)
(declare-fun z_0_11_3 () Bool)
(declare-fun z_1_11_4 () Bool)
(declare-fun z_0_11_4 () Bool)
(declare-fun z_1_12_0 () Bool)
(declare-fun z_0_12_0 () Bool)
(declare-fun z_1_12_1 () Bool)
(declare-fun z_0_12_1 () Bool)
(declare-fun z_1_12_2 () Bool)
(declare-fun z_0_12_2 () Bool)
(declare-fun z_1_12_3 () Bool)
(declare-fun z_0_12_3 () Bool)
(declare-fun z_1_12_4 () Bool)
(declare-fun z_0_12_4 () Bool)
(declare-fun z_1_12_5 () Bool)
(declare-fun z_0_12_5 () Bool)
(declare-fun z_1_13_0 () Bool)
(declare-fun z_0_13_0 () Bool)
(declare-fun z_1_13_1 () Bool)
(declare-fun z_0_13_1 () Bool)
(declare-fun z_1_13_2 () Bool)
(declare-fun z_0_13_2 () Bool)
(declare-fun z_1_13_3 () Bool)
(declare-fun z_0_13_3 () Bool)
(declare-fun z_1_13_4 () Bool)
(declare-fun z_0_13_4 () Bool)
(declare-fun z_1_13_5 () Bool)
(declare-fun z_0_13_5 () Bool)
(declare-fun z_1_14_0 () Bool)
(declare-fun z_0_14_0 () Bool)
(declare-fun z_1_14_1 () Bool)
(declare-fun z_0_14_1 () Bool)
(declare-fun z_1_14_2 () Bool)
(declare-fun z_0_14_2 () Bool)
(declare-fun z_1_14_3 () Bool)
(declare-fun z_0_14_3 () Bool)
(declare-fun z_1_15_0 () Bool)
(declare-fun z_0_15_0 () Bool)
(declare-fun z_1_15_1 () Bool)
(declare-fun z_0_15_1 () Bool)
(declare-fun z_1_15_2 () Bool)
(declare-fun z_0_15_2 () Bool)
(declare-fun z_1_15_3 () Bool)
(declare-fun z_0_15_3 () Bool)
(declare-fun z_1_15_4 () Bool)
(declare-fun z_0_15_4 () Bool)
(declare-fun z_1_15_5 () Bool)
(declare-fun z_0_15_5 () Bool)
(declare-fun z_1_16_0 () Bool)
(declare-fun z_0_16_0 () Bool)
(declare-fun z_1_16_1 () Bool)
(declare-fun z_0_16_1 () Bool)
(declare-fun z_1_16_2 () Bool)
(declare-fun z_0_16_2 () Bool)
(declare-fun z_1_16_3 () Bool)
(declare-fun z_0_16_3 () Bool)
(declare-fun z_1_16_4 () Bool)
(declare-fun z_0_16_4 () Bool)
(declare-fun z_1_17_0 () Bool)
(declare-fun z_0_17_0 () Bool)
(declare-fun z_1_17_1 () Bool)
(declare-fun z_0_17_1 () Bool)
(declare-fun z_1_17_2 () Bool)
(declare-fun z_0_17_2 () Bool)
(declare-fun z_1_17_3 () Bool)
(declare-fun z_0_17_3 () Bool)
(declare-fun z_1_17_4 () Bool)
(declare-fun z_0_17_4 () Bool)
(declare-fun z_1_17_5 () Bool)
(declare-fun z_0_17_5 () Bool)
(declare-fun z_1_18_0 () Bool)
(declare-fun z_0_18_0 () Bool)
(declare-fun z_1_18_1 () Bool)
(declare-fun z_0_18_1 () Bool)
(declare-fun z_1_18_2 () Bool)
(declare-fun z_0_18_2 () Bool)
(declare-fun z_1_18_3 () Bool)
(declare-fun z_0_18_3 () Bool)
(declare-fun z_1_18_4 () Bool)
(declare-fun z_0_18_4 () Bool)
(declare-fun z_1_18_5 () Bool)
(declare-fun z_0_18_5 () Bool)
(declare-fun z_1_18_6 () Bool)
(declare-fun z_0_18_6 () Bool)
(declare-fun z_1_18_7 () Bool)
(declare-fun z_0_18_7 () Bool)
(declare-fun z_1_19_0 () Bool)
(declare-fun z_0_19_0 () Bool)
(declare-fun z_1_19_1 () Bool)
(declare-fun z_0_19_1 () Bool)
(declare-fun z_1_19_2 () Bool)
(declare-fun z_0_19_2 () Bool)
(declare-fun z_1_19_3 () Bool)
(declare-fun z_0_19_3 () Bool)
(declare-fun z_1_19_4 () Bool)
(declare-fun z_0_19_4 () Bool)
(declare-fun z_2_0_0 () Bool)
(declare-fun z_2_1_0 () Bool)
(declare-fun z_2_2_0 () Bool)
(declare-fun z_2_3_0 () Bool)
(declare-fun z_2_4_0 () Bool)
(declare-fun z_2_5_0 () Bool)
(declare-fun z_2_6_0 () Bool)
(declare-fun z_2_7_0 () Bool)
(declare-fun z_2_8_0 () Bool)
(declare-fun z_2_9_0 () Bool)
(declare-fun z_2_10_0 () Bool)
(declare-fun z_2_10_1 () Bool)
(declare-fun z_2_10_2 () Bool)
(declare-fun z_2_11_0 () Bool)
(declare-fun z_2_11_1 () Bool)
(declare-fun z_2_11_2 () Bool)
(declare-fun z_2_11_3 () Bool)
(declare-fun z_2_11_4 () Bool)
(declare-fun z_2_12_0 () Bool)
(declare-fun z_2_12_1 () Bool)
(declare-fun z_2_12_2 () Bool)
(declare-fun z_2_12_3 () Bool)
(declare-fun z_2_12_4 () Bool)
(declare-fun z_2_12_5 () Bool)
(declare-fun z_2_13_0 () Bool)
(declare-fun z_2_13_1 () Bool)
(declare-fun z_2_13_2 () Bool)
(declare-fun z_2_13_3 () Bool)
(declare-fun z_2_13_4 () Bool)
(declare-fun z_2_13_5 () Bool)
(declare-fun z_2_14_0 () Bool)
(declare-fun z_2_14_1 () Bool)
(declare-fun z_2_14_2 () Bool)
(declare-fun z_2_14_3 () Bool)
(declare-fun z_2_15_0 () Bool)
(declare-fun z_2_15_1 () Bool)
(declare-fun z_2_15_2 () Bool)
(declare-fun z_2_15_3 () Bool)
(declare-fun z_2_15_4 () Bool)
(declare-fun z_2_15_5 () Bool)
(declare-fun z_2_16_0 () Bool)
(declare-fun z_2_16_1 () Bool)
(declare-fun z_2_16_2 () Bool)
(declare-fun z_2_16_3 () Bool)
(declare-fun z_2_16_4 () Bool)
(declare-fun z_2_17_0 () Bool)
(declare-fun z_2_17_1 () Bool)
(declare-fun z_2_17_2 () Bool)
(declare-fun z_2_17_3 () Bool)
(declare-fun z_2_17_4 () Bool)
(declare-fun z_2_17_5 () Bool)
(declare-fun z_2_18_0 () Bool)
(declare-fun z_2_18_1 () Bool)
(declare-fun z_2_18_2 () Bool)
(declare-fun z_2_18_3 () Bool)
(declare-fun z_2_18_4 () Bool)
(declare-fun z_2_18_5 () Bool)
(declare-fun z_2_18_6 () Bool)
(declare-fun z_2_18_7 () Bool)
(declare-fun z_2_19_0 () Bool)
(declare-fun z_2_19_1 () Bool)
(declare-fun z_2_19_2 () Bool)
(declare-fun z_2_19_3 () Bool)
(declare-fun z_2_19_4 () Bool)
(assert
 (=> x_0_! (= z_0_0_0 (not z_1_0_0))))
(assert
 (let (($x34 (= z_0_0_0 z_1_0_0)))
 (=> x_0_X $x34)))
(assert
 (=> x_0_F (= z_0_0_0 (or z_1_0_0))))
(assert
 (=> x_0_G (= z_0_0_0 (and z_1_0_0))))
(assert
 (=> x_0_! (= z_0_1_0 (not z_1_1_0))))
(assert
 (let (($x58 (= z_0_1_0 z_1_1_0)))
 (=> x_0_X $x58)))
(assert
 (=> x_0_F (= z_0_1_0 (or z_1_1_0))))
(assert
 (=> x_0_G (= z_0_1_0 (and z_1_1_0))))
(assert
 (=> x_0_! (= z_0_2_0 (not z_1_2_0))))
(assert
 (let (($x77 (= z_0_2_0 z_1_2_0)))
 (=> x_0_X $x77)))
(assert
 (=> x_0_F (= z_0_2_0 (or z_1_2_0))))
(assert
 (=> x_0_G (= z_0_2_0 (and z_1_2_0))))
(assert
 (=> x_0_! (= z_0_3_0 (not z_1_3_0))))
(assert
 (let (($x96 (= z_0_3_0 z_1_3_0)))
 (=> x_0_X $x96)))
(assert
 (=> x_0_F (= z_0_3_0 (or z_1_3_0))))
(assert
 (=> x_0_G (= z_0_3_0 (and z_1_3_0))))
(assert
 (=> x_0_! (= z_0_4_0 (not z_1_4_0))))
(assert
 (let (($x115 (= z_0_4_0 z_1_4_0)))
 (=> x_0_X $x115)))
(assert
 (=> x_0_F (= z_0_4_0 (or z_1_4_0))))
(assert
 (=> x_0_G (= z_0_4_0 (and z_1_4_0))))
(assert
 (=> x_0_! (= z_0_5_0 (not z_1_5_0))))
(assert
 (let (($x134 (= z_0_5_0 z_1_5_0)))
 (=> x_0_X $x134)))
(assert
 (=> x_0_F (= z_0_5_0 (or z_1_5_0))))
(assert
 (=> x_0_G (= z_0_5_0 (and z_1_5_0))))
(assert
 (=> x_0_! (= z_0_6_0 (not z_1_6_0))))
(assert
 (let (($x153 (= z_0_6_0 z_1_6_0)))
 (=> x_0_X $x153)))
(assert
 (=> x_0_F (= z_0_6_0 (or z_1_6_0))))
(assert
 (=> x_0_G (= z_0_6_0 (and z_1_6_0))))
(assert
 (=> x_0_! (= z_0_7_0 (not z_1_7_0))))
(assert
 (let (($x172 (= z_0_7_0 z_1_7_0)))
 (=> x_0_X $x172)))
(assert
 (=> x_0_F (= z_0_7_0 (or z_1_7_0))))
(assert
 (=> x_0_G (= z_0_7_0 (and z_1_7_0))))
(assert
 (=> x_0_! (= z_0_8_0 (not z_1_8_0))))
(assert
 (let (($x191 (= z_0_8_0 z_1_8_0)))
 (=> x_0_X $x191)))
(assert
 (=> x_0_F (= z_0_8_0 (or z_1_8_0))))
(assert
 (=> x_0_G (= z_0_8_0 (and z_1_8_0))))
(assert
 (=> x_0_! (= z_0_9_0 (not z_1_9_0))))
(assert
 (let (($x210 (= z_0_9_0 z_1_9_0)))
 (=> x_0_X $x210)))
(assert
 (=> x_0_F (= z_0_9_0 (or z_1_9_0))))
(assert
 (=> x_0_G (= z_0_9_0 (and z_1_9_0))))
(assert
 (=> x_0_! (= z_0_10_0 (not z_1_10_0))))
(assert
 (let (($x230 (= z_0_10_0 z_1_10_1)))
 (=> x_0_X $x230)))
(assert
 (let (($x235 (= z_0_10_0 (or z_1_10_0 z_0_10_1))))
 (=> x_0_F $x235)))
(assert
 (let (($x239 (= z_0_10_0 (and z_1_10_0 z_0_10_1))))
 (=> x_0_G $x239)))
(assert
 (=> x_0_! (= z_0_10_1 (not z_1_10_1))))
(assert
 (let (($x249 (= z_0_10_1 z_1_10_2)))
 (=> x_0_X $x249)))
(assert
 (let (($x254 (= z_0_10_1 (or z_1_10_1 z_0_10_2))))
 (=> x_0_F $x254)))
(assert
 (let (($x258 (= z_0_10_1 (and z_1_10_1 z_0_10_2))))
 (=> x_0_G $x258)))
(assert
 (=> x_0_! (= z_0_10_2 (not z_1_10_2))))
(assert
 (let (($x267 (= z_0_10_2 z_1_10_1)))
 (=> x_0_X $x267)))
(assert
 (let (($x271 (= z_0_10_2 (or z_1_10_1 z_1_10_2))))
 (=> x_0_F $x271)))
(assert
 (let (($x275 (= z_0_10_2 (and z_1_10_1 z_1_10_2))))
 (=> x_0_G $x275)))
(assert
 (=> x_0_! (= z_0_11_0 (not z_1_11_0))))
(assert
 (let (($x287 (= z_0_11_0 z_1_11_1)))
 (=> x_0_X $x287)))
(assert
 (let (($x292 (= z_0_11_0 (or z_1_11_0 z_0_11_1))))
 (=> x_0_F $x292)))
(assert
 (let (($x296 (= z_0_11_0 (and z_1_11_0 z_0_11_1))))
 (=> x_0_G $x296)))
(assert
 (=> x_0_! (= z_0_11_1 (not z_1_11_1))))
(assert
 (let (($x306 (= z_0_11_1 z_1_11_2)))
 (=> x_0_X $x306)))
(assert
 (let (($x311 (= z_0_11_1 (or z_1_11_1 z_0_11_2))))
 (=> x_0_F $x311)))
(assert
 (let (($x315 (= z_0_11_1 (and z_1_11_1 z_0_11_2))))
 (=> x_0_G $x315)))
(assert
 (=> x_0_! (= z_0_11_2 (not z_1_11_2))))
(assert
 (let (($x325 (= z_0_11_2 z_1_11_3)))
 (=> x_0_X $x325)))
(assert
 (let (($x330 (= z_0_11_2 (or z_1_11_2 z_0_11_3))))
 (=> x_0_F $x330)))
(assert
 (let (($x334 (= z_0_11_2 (and z_1_11_2 z_0_11_3))))
 (=> x_0_G $x334)))
(assert
 (=> x_0_! (= z_0_11_3 (not z_1_11_3))))
(assert
 (let (($x344 (= z_0_11_3 z_1_11_4)))
 (=> x_0_X $x344)))
(assert
 (let (($x349 (= z_0_11_3 (or z_1_11_3 z_0_11_4))))
 (=> x_0_F $x349)))
(assert
 (let (($x353 (= z_0_11_3 (and z_1_11_3 z_0_11_4))))
 (=> x_0_G $x353)))
(assert
 (=> x_0_! (= z_0_11_4 (not z_1_11_4))))
(assert
 (let (($x362 (= z_0_11_4 z_1_11_3)))
 (=> x_0_X $x362)))
(assert
 (let (($x366 (= z_0_11_4 (or z_1_11_3 z_1_11_4))))
 (=> x_0_F $x366)))
(assert
 (let (($x370 (= z_0_11_4 (and z_1_11_3 z_1_11_4))))
 (=> x_0_G $x370)))
(assert
 (=> x_0_! (= z_0_12_0 (not z_1_12_0))))
(assert
 (let (($x382 (= z_0_12_0 z_1_12_1)))
 (=> x_0_X $x382)))
(assert
 (let (($x387 (= z_0_12_0 (or z_1_12_0 z_0_12_1))))
 (=> x_0_F $x387)))
(assert
 (let (($x391 (= z_0_12_0 (and z_1_12_0 z_0_12_1))))
 (=> x_0_G $x391)))
(assert
 (=> x_0_! (= z_0_12_1 (not z_1_12_1))))
(assert
 (let (($x401 (= z_0_12_1 z_1_12_2)))
 (=> x_0_X $x401)))
(assert
 (let (($x406 (= z_0_12_1 (or z_1_12_1 z_0_12_2))))
 (=> x_0_F $x406)))
(assert
 (let (($x410 (= z_0_12_1 (and z_1_12_1 z_0_12_2))))
 (=> x_0_G $x410)))
(assert
 (=> x_0_! (= z_0_12_2 (not z_1_12_2))))
(assert
 (let (($x420 (= z_0_12_2 z_1_12_3)))
 (=> x_0_X $x420)))
(assert
 (let (($x425 (= z_0_12_2 (or z_1_12_2 z_0_12_3))))
 (=> x_0_F $x425)))
(assert
 (let (($x429 (= z_0_12_2 (and z_1_12_2 z_0_12_3))))
 (=> x_0_G $x429)))
(assert
 (=> x_0_! (= z_0_12_3 (not z_1_12_3))))
(assert
 (let (($x439 (= z_0_12_3 z_1_12_4)))
 (=> x_0_X $x439)))
(assert
 (let (($x444 (= z_0_12_3 (or z_1_12_3 z_0_12_4))))
 (=> x_0_F $x444)))
(assert
 (let (($x448 (= z_0_12_3 (and z_1_12_3 z_0_12_4))))
 (=> x_0_G $x448)))
(assert
 (=> x_0_! (= z_0_12_4 (not z_1_12_4))))
(assert
 (let (($x458 (= z_0_12_4 z_1_12_5)))
 (=> x_0_X $x458)))
(assert
 (let (($x463 (= z_0_12_4 (or z_1_12_4 z_0_12_5))))
 (=> x_0_F $x463)))
(assert
 (let (($x467 (= z_0_12_4 (and z_1_12_4 z_0_12_5))))
 (=> x_0_G $x467)))
(assert
 (=> x_0_! (= z_0_12_5 (not z_1_12_5))))
(assert
 (let (($x476 (= z_0_12_5 z_1_12_2)))
 (=> x_0_X $x476)))
(assert
 (let (($x480 (= z_0_12_5 (or z_1_12_2 z_1_12_3 z_1_12_4 z_1_12_5))))
 (=> x_0_F $x480)))
(assert
 (let (($x484 (= z_0_12_5 (and z_1_12_2 z_1_12_3 z_1_12_4 z_1_12_5))))
 (=> x_0_G $x484)))
(assert
 (=> x_0_! (= z_0_13_0 (not z_1_13_0))))
(assert
 (let (($x496 (= z_0_13_0 z_1_13_1)))
 (=> x_0_X $x496)))
(assert
 (let (($x501 (= z_0_13_0 (or z_1_13_0 z_0_13_1))))
 (=> x_0_F $x501)))
(assert
 (let (($x505 (= z_0_13_0 (and z_1_13_0 z_0_13_1))))
 (=> x_0_G $x505)))
(assert
 (=> x_0_! (= z_0_13_1 (not z_1_13_1))))
(assert
 (let (($x515 (= z_0_13_1 z_1_13_2)))
 (=> x_0_X $x515)))
(assert
 (let (($x520 (= z_0_13_1 (or z_1_13_1 z_0_13_2))))
 (=> x_0_F $x520)))
(assert
 (let (($x524 (= z_0_13_1 (and z_1_13_1 z_0_13_2))))
 (=> x_0_G $x524)))
(assert
 (=> x_0_! (= z_0_13_2 (not z_1_13_2))))
(assert
 (let (($x534 (= z_0_13_2 z_1_13_3)))
 (=> x_0_X $x534)))
(assert
 (let (($x539 (= z_0_13_2 (or z_1_13_2 z_0_13_3))))
 (=> x_0_F $x539)))
(assert
 (let (($x543 (= z_0_13_2 (and z_1_13_2 z_0_13_3))))
 (=> x_0_G $x543)))
(assert
 (=> x_0_! (= z_0_13_3 (not z_1_13_3))))
(assert
 (let (($x553 (= z_0_13_3 z_1_13_4)))
 (=> x_0_X $x553)))
(assert
 (let (($x558 (= z_0_13_3 (or z_1_13_3 z_0_13_4))))
 (=> x_0_F $x558)))
(assert
 (let (($x562 (= z_0_13_3 (and z_1_13_3 z_0_13_4))))
 (=> x_0_G $x562)))
(assert
 (=> x_0_! (= z_0_13_4 (not z_1_13_4))))
(assert
 (let (($x572 (= z_0_13_4 z_1_13_5)))
 (=> x_0_X $x572)))
(assert
 (let (($x577 (= z_0_13_4 (or z_1_13_4 z_0_13_5))))
 (=> x_0_F $x577)))
(assert
 (let (($x581 (= z_0_13_4 (and z_1_13_4 z_0_13_5))))
 (=> x_0_G $x581)))
(assert
 (=> x_0_! (= z_0_13_5 (not z_1_13_5))))
(assert
 (let (($x590 (= z_0_13_5 z_1_13_2)))
 (=> x_0_X $x590)))
(assert
 (let (($x594 (= z_0_13_5 (or z_1_13_2 z_1_13_3 z_1_13_4 z_1_13_5))))
 (=> x_0_F $x594)))
(assert
 (let (($x598 (= z_0_13_5 (and z_1_13_2 z_1_13_3 z_1_13_4 z_1_13_5))))
 (=> x_0_G $x598)))
(assert
 (=> x_0_! (= z_0_14_0 (not z_1_14_0))))
(assert
 (let (($x610 (= z_0_14_0 z_1_14_1)))
 (=> x_0_X $x610)))
(assert
 (let (($x615 (= z_0_14_0 (or z_1_14_0 z_0_14_1))))
 (=> x_0_F $x615)))
(assert
 (let (($x619 (= z_0_14_0 (and z_1_14_0 z_0_14_1))))
 (=> x_0_G $x619)))
(assert
 (=> x_0_! (= z_0_14_1 (not z_1_14_1))))
(assert
 (let (($x629 (= z_0_14_1 z_1_14_2)))
 (=> x_0_X $x629)))
(assert
 (let (($x634 (= z_0_14_1 (or z_1_14_1 z_0_14_2))))
 (=> x_0_F $x634)))
(assert
 (let (($x638 (= z_0_14_1 (and z_1_14_1 z_0_14_2))))
 (=> x_0_G $x638)))
(assert
 (=> x_0_! (= z_0_14_2 (not z_1_14_2))))
(assert
 (let (($x648 (= z_0_14_2 z_1_14_3)))
 (=> x_0_X $x648)))
(assert
 (let (($x653 (= z_0_14_2 (or z_1_14_2 z_0_14_3))))
 (=> x_0_F $x653)))
(assert
 (let (($x657 (= z_0_14_2 (and z_1_14_2 z_0_14_3))))
 (=> x_0_G $x657)))
(assert
 (=> x_0_! (= z_0_14_3 (not z_1_14_3))))
(assert
 (let (($x666 (= z_0_14_3 z_1_14_3)))
 (=> x_0_X $x666)))
(assert
 (=> x_0_F (= z_0_14_3 (or z_1_14_3))))
(assert
 (=> x_0_G (= z_0_14_3 (and z_1_14_3))))
(assert
 (=> x_0_! (= z_0_15_0 (not z_1_15_0))))
(assert
 (let (($x686 (= z_0_15_0 z_1_15_1)))
 (=> x_0_X $x686)))
(assert
 (let (($x691 (= z_0_15_0 (or z_1_15_0 z_0_15_1))))
 (=> x_0_F $x691)))
(assert
 (let (($x695 (= z_0_15_0 (and z_1_15_0 z_0_15_1))))
 (=> x_0_G $x695)))
(assert
 (=> x_0_! (= z_0_15_1 (not z_1_15_1))))
(assert
 (let (($x705 (= z_0_15_1 z_1_15_2)))
 (=> x_0_X $x705)))
(assert
 (let (($x710 (= z_0_15_1 (or z_1_15_1 z_0_15_2))))
 (=> x_0_F $x710)))
(assert
 (let (($x714 (= z_0_15_1 (and z_1_15_1 z_0_15_2))))
 (=> x_0_G $x714)))
(assert
 (=> x_0_! (= z_0_15_2 (not z_1_15_2))))
(assert
 (let (($x724 (= z_0_15_2 z_1_15_3)))
 (=> x_0_X $x724)))
(assert
 (let (($x729 (= z_0_15_2 (or z_1_15_2 z_0_15_3))))
 (=> x_0_F $x729)))
(assert
 (let (($x733 (= z_0_15_2 (and z_1_15_2 z_0_15_3))))
 (=> x_0_G $x733)))
(assert
 (=> x_0_! (= z_0_15_3 (not z_1_15_3))))
(assert
 (let (($x743 (= z_0_15_3 z_1_15_4)))
 (=> x_0_X $x743)))
(assert
 (let (($x748 (= z_0_15_3 (or z_1_15_3 z_0_15_4))))
 (=> x_0_F $x748)))
(assert
 (let (($x752 (= z_0_15_3 (and z_1_15_3 z_0_15_4))))
 (=> x_0_G $x752)))
(assert
 (=> x_0_! (= z_0_15_4 (not z_1_15_4))))
(assert
 (let (($x762 (= z_0_15_4 z_1_15_5)))
 (=> x_0_X $x762)))
(assert
 (let (($x767 (= z_0_15_4 (or z_1_15_4 z_0_15_5))))
 (=> x_0_F $x767)))
(assert
 (let (($x771 (= z_0_15_4 (and z_1_15_4 z_0_15_5))))
 (=> x_0_G $x771)))
(assert
 (=> x_0_! (= z_0_15_5 (not z_1_15_5))))
(assert
 (let (($x780 (= z_0_15_5 z_1_15_3)))
 (=> x_0_X $x780)))
(assert
 (let (($x784 (= z_0_15_5 (or z_1_15_3 z_1_15_4 z_1_15_5))))
 (=> x_0_F $x784)))
(assert
 (let (($x788 (= z_0_15_5 (and z_1_15_3 z_1_15_4 z_1_15_5))))
 (=> x_0_G $x788)))
(assert
 (=> x_0_! (= z_0_16_0 (not z_1_16_0))))
(assert
 (let (($x800 (= z_0_16_0 z_1_16_1)))
 (=> x_0_X $x800)))
(assert
 (let (($x805 (= z_0_16_0 (or z_1_16_0 z_0_16_1))))
 (=> x_0_F $x805)))
(assert
 (let (($x809 (= z_0_16_0 (and z_1_16_0 z_0_16_1))))
 (=> x_0_G $x809)))
(assert
 (=> x_0_! (= z_0_16_1 (not z_1_16_1))))
(assert
 (let (($x819 (= z_0_16_1 z_1_16_2)))
 (=> x_0_X $x819)))
(assert
 (let (($x824 (= z_0_16_1 (or z_1_16_1 z_0_16_2))))
 (=> x_0_F $x824)))
(assert
 (let (($x828 (= z_0_16_1 (and z_1_16_1 z_0_16_2))))
 (=> x_0_G $x828)))
(assert
 (=> x_0_! (= z_0_16_2 (not z_1_16_2))))
(assert
 (let (($x838 (= z_0_16_2 z_1_16_3)))
 (=> x_0_X $x838)))
(assert
 (let (($x843 (= z_0_16_2 (or z_1_16_2 z_0_16_3))))
 (=> x_0_F $x843)))
(assert
 (let (($x847 (= z_0_16_2 (and z_1_16_2 z_0_16_3))))
 (=> x_0_G $x847)))
(assert
 (=> x_0_! (= z_0_16_3 (not z_1_16_3))))
(assert
 (let (($x857 (= z_0_16_3 z_1_16_4)))
 (=> x_0_X $x857)))
(assert
 (let (($x862 (= z_0_16_3 (or z_1_16_3 z_0_16_4))))
 (=> x_0_F $x862)))
(assert
 (let (($x866 (= z_0_16_3 (and z_1_16_3 z_0_16_4))))
 (=> x_0_G $x866)))
(assert
 (=> x_0_! (= z_0_16_4 (not z_1_16_4))))
(assert
 (let (($x875 (= z_0_16_4 z_1_16_4)))
 (=> x_0_X $x875)))
(assert
 (=> x_0_F (= z_0_16_4 (or z_1_16_4))))
(assert
 (=> x_0_G (= z_0_16_4 (and z_1_16_4))))
(assert
 (=> x_0_! (= z_0_17_0 (not z_1_17_0))))
(assert
 (let (($x895 (= z_0_17_0 z_1_17_1)))
 (=> x_0_X $x895)))
(assert
 (let (($x900 (= z_0_17_0 (or z_1_17_0 z_0_17_1))))
 (=> x_0_F $x900)))
(assert
 (let (($x904 (= z_0_17_0 (and z_1_17_0 z_0_17_1))))
 (=> x_0_G $x904)))
(assert
 (=> x_0_! (= z_0_17_1 (not z_1_17_1))))
(assert
 (let (($x914 (= z_0_17_1 z_1_17_2)))
 (=> x_0_X $x914)))
(assert
 (let (($x919 (= z_0_17_1 (or z_1_17_1 z_0_17_2))))
 (=> x_0_F $x919)))
(assert
 (let (($x923 (= z_0_17_1 (and z_1_17_1 z_0_17_2))))
 (=> x_0_G $x923)))
(assert
 (=> x_0_! (= z_0_17_2 (not z_1_17_2))))
(assert
 (let (($x933 (= z_0_17_2 z_1_17_3)))
 (=> x_0_X $x933)))
(assert
 (let (($x938 (= z_0_17_2 (or z_1_17_2 z_0_17_3))))
 (=> x_0_F $x938)))
(assert
 (let (($x942 (= z_0_17_2 (and z_1_17_2 z_0_17_3))))
 (=> x_0_G $x942)))
(assert
 (=> x_0_! (= z_0_17_3 (not z_1_17_3))))
(assert
 (let (($x952 (= z_0_17_3 z_1_17_4)))
 (=> x_0_X $x952)))
(assert
 (let (($x957 (= z_0_17_3 (or z_1_17_3 z_0_17_4))))
 (=> x_0_F $x957)))
(assert
 (let (($x961 (= z_0_17_3 (and z_1_17_3 z_0_17_4))))
 (=> x_0_G $x961)))
(assert
 (=> x_0_! (= z_0_17_4 (not z_1_17_4))))
(assert
 (let (($x971 (= z_0_17_4 z_1_17_5)))
 (=> x_0_X $x971)))
(assert
 (let (($x976 (= z_0_17_4 (or z_1_17_4 z_0_17_5))))
 (=> x_0_F $x976)))
(assert
 (let (($x980 (= z_0_17_4 (and z_1_17_4 z_0_17_5))))
 (=> x_0_G $x980)))
(assert
 (=> x_0_! (= z_0_17_5 (not z_1_17_5))))
(assert
 (let (($x989 (= z_0_17_5 z_1_17_3)))
 (=> x_0_X $x989)))
(assert
 (let (($x993 (= z_0_17_5 (or z_1_17_3 z_1_17_4 z_1_17_5))))
 (=> x_0_F $x993)))
(assert
 (let (($x997 (= z_0_17_5 (and z_1_17_3 z_1_17_4 z_1_17_5))))
 (=> x_0_G $x997)))
(assert
 (=> x_0_! (= z_0_18_0 (not z_1_18_0))))
(assert
 (let (($x1009 (= z_0_18_0 z_1_18_1)))
 (=> x_0_X $x1009)))
(assert
 (let (($x1014 (= z_0_18_0 (or z_1_18_0 z_0_18_1))))
 (=> x_0_F $x1014)))
(assert
 (let (($x1018 (= z_0_18_0 (and z_1_18_0 z_0_18_1))))
 (=> x_0_G $x1018)))
(assert
 (=> x_0_! (= z_0_18_1 (not z_1_18_1))))
(assert
 (let (($x1028 (= z_0_18_1 z_1_18_2)))
 (=> x_0_X $x1028)))
(assert
 (let (($x1033 (= z_0_18_1 (or z_1_18_1 z_0_18_2))))
 (=> x_0_F $x1033)))
(assert
 (let (($x1037 (= z_0_18_1 (and z_1_18_1 z_0_18_2))))
 (=> x_0_G $x1037)))
(assert
 (=> x_0_! (= z_0_18_2 (not z_1_18_2))))
(assert
 (let (($x1047 (= z_0_18_2 z_1_18_3)))
 (=> x_0_X $x1047)))
(assert
 (let (($x1052 (= z_0_18_2 (or z_1_18_2 z_0_18_3))))
 (=> x_0_F $x1052)))
(assert
 (let (($x1056 (= z_0_18_2 (and z_1_18_2 z_0_18_3))))
 (=> x_0_G $x1056)))
(assert
 (=> x_0_! (= z_0_18_3 (not z_1_18_3))))
(assert
 (let (($x1066 (= z_0_18_3 z_1_18_4)))
 (=> x_0_X $x1066)))
(assert
 (let (($x1071 (= z_0_18_3 (or z_1_18_3 z_0_18_4))))
 (=> x_0_F $x1071)))
(assert
 (let (($x1075 (= z_0_18_3 (and z_1_18_3 z_0_18_4))))
 (=> x_0_G $x1075)))
(assert
 (=> x_0_! (= z_0_18_4 (not z_1_18_4))))
(assert
 (let (($x1085 (= z_0_18_4 z_1_18_5)))
 (=> x_0_X $x1085)))
(assert
 (let (($x1090 (= z_0_18_4 (or z_1_18_4 z_0_18_5))))
 (=> x_0_F $x1090)))
(assert
 (let (($x1094 (= z_0_18_4 (and z_1_18_4 z_0_18_5))))
 (=> x_0_G $x1094)))
(assert
 (=> x_0_! (= z_0_18_5 (not z_1_18_5))))
(assert
 (let (($x1104 (= z_0_18_5 z_1_18_6)))
 (=> x_0_X $x1104)))
(assert
 (let (($x1109 (= z_0_18_5 (or z_1_18_5 z_0_18_6))))
 (=> x_0_F $x1109)))
(assert
 (let (($x1113 (= z_0_18_5 (and z_1_18_5 z_0_18_6))))
 (=> x_0_G $x1113)))
(assert
 (=> x_0_! (= z_0_18_6 (not z_1_18_6))))
(assert
 (let (($x1123 (= z_0_18_6 z_1_18_7)))
 (=> x_0_X $x1123)))
(assert
 (let (($x1128 (= z_0_18_6 (or z_1_18_6 z_0_18_7))))
 (=> x_0_F $x1128)))
(assert
 (let (($x1132 (= z_0_18_6 (and z_1_18_6 z_0_18_7))))
 (=> x_0_G $x1132)))
(assert
 (=> x_0_! (= z_0_18_7 (not z_1_18_7))))
(assert
 (let (($x1141 (= z_0_18_7 z_1_18_4)))
 (=> x_0_X $x1141)))
(assert
 (let (($x1145 (= z_0_18_7 (or z_1_18_4 z_1_18_5 z_1_18_6 z_1_18_7))))
 (=> x_0_F $x1145)))
(assert
 (let (($x1149 (= z_0_18_7 (and z_1_18_4 z_1_18_5 z_1_18_6 z_1_18_7))))
 (=> x_0_G $x1149)))
(assert
 (=> x_0_! (= z_0_19_0 (not z_1_19_0))))
(assert
 (let (($x1161 (= z_0_19_0 z_1_19_1)))
 (=> x_0_X $x1161)))
(assert
 (let (($x1166 (= z_0_19_0 (or z_1_19_0 z_0_19_1))))
 (=> x_0_F $x1166)))
(assert
 (let (($x1170 (= z_0_19_0 (and z_1_19_0 z_0_19_1))))
 (=> x_0_G $x1170)))
(assert
 (=> x_0_! (= z_0_19_1 (not z_1_19_1))))
(assert
 (let (($x1180 (= z_0_19_1 z_1_19_2)))
 (=> x_0_X $x1180)))
(assert
 (let (($x1185 (= z_0_19_1 (or z_1_19_1 z_0_19_2))))
 (=> x_0_F $x1185)))
(assert
 (let (($x1189 (= z_0_19_1 (and z_1_19_1 z_0_19_2))))
 (=> x_0_G $x1189)))
(assert
 (=> x_0_! (= z_0_19_2 (not z_1_19_2))))
(assert
 (let (($x1199 (= z_0_19_2 z_1_19_3)))
 (=> x_0_X $x1199)))
(assert
 (let (($x1204 (= z_0_19_2 (or z_1_19_2 z_0_19_3))))
 (=> x_0_F $x1204)))
(assert
 (let (($x1208 (= z_0_19_2 (and z_1_19_2 z_0_19_3))))
 (=> x_0_G $x1208)))
(assert
 (=> x_0_! (= z_0_19_3 (not z_1_19_3))))
(assert
 (let (($x1218 (= z_0_19_3 z_1_19_4)))
 (=> x_0_X $x1218)))
(assert
 (let (($x1223 (= z_0_19_3 (or z_1_19_3 z_0_19_4))))
 (=> x_0_F $x1223)))
(assert
 (let (($x1227 (= z_0_19_3 (and z_1_19_3 z_0_19_4))))
 (=> x_0_G $x1227)))
(assert
 (=> x_0_! (= z_0_19_4 (not z_1_19_4))))
(assert
 (let (($x1236 (= z_0_19_4 z_1_19_3)))
 (=> x_0_X $x1236)))
(assert
 (let (($x1240 (= z_0_19_4 (or z_1_19_3 z_1_19_4))))
 (=> x_0_F $x1240)))
(assert
 (let (($x1244 (= z_0_19_4 (and z_1_19_3 z_1_19_4))))
 (=> x_0_G $x1244)))
(assert
 (or x_0_! x_0_X x_0_F x_0_G))
(assert
 (let (($x48 (not x_0_G)))
 (let (($x42 (not x_0_F)))
 (let (($x1253 (or $x42 $x48)))
 (let (($x36 (not x_0_X)))
 (let (($x1252 (or $x36 $x48)))
 (let (($x1251 (or $x36 $x42)))
 (let (($x31 (not x_0_!)))
 (let (($x1250 (or $x31 $x48)))
 (let (($x1249 (or $x31 $x42)))
 (let (($x1248 (or $x31 $x36)))
 (and $x1248 $x1249 $x1250 $x1251 $x1252 $x1253))))))))))))
(assert
 (= z_1_0_0 (not z_2_0_0)))
(assert
 (= z_1_1_0 (not z_2_1_0)))
(assert
 (= z_1_2_0 (not z_2_2_0)))
(assert
 (= z_1_3_0 (not z_2_3_0)))
(assert
 (= z_1_4_0 (not z_2_4_0)))
(assert
 (= z_1_5_0 (not z_2_5_0)))
(assert
 (= z_1_6_0 (not z_2_6_0)))
(assert
 (= z_1_7_0 (not z_2_7_0)))
(assert
 (= z_1_8_0 (not z_2_8_0)))
(assert
 (= z_1_9_0 (not z_2_9_0)))
(assert
 (= z_1_10_0 (not z_2_10_0)))
(assert
 (= z_1_10_1 (not z_2_10_1)))
(assert
 (= z_1_10_2 (not z_2_10_2)))
(assert
 (= z_1_11_0 (not z_2_11_0)))
(assert
 (= z_1_11_1 (not z_2_11_1)))
(assert
 (= z_1_11_2 (not z_2_11_2)))
(assert
 (= z_1_11_3 (not z_2_11_3)))
(assert
 (= z_1_11_4 (not z_2_11_4)))
(assert
 (= z_1_12_0 (not z_2_12_0)))
(assert
 (= z_1_12_1 (not z_2_12_1)))
(assert
 (= z_1_12_2 (not z_2_12_2)))
(assert
 (= z_1_12_3 (not z_2_12_3)))
(assert
 (= z_1_12_4 (not z_2_12_4)))
(assert
 (= z_1_12_5 (not z_2_12_5)))
(assert
 (= z_1_13_0 (not z_2_13_0)))
(assert
 (= z_1_13_1 (not z_2_13_1)))
(assert
 (= z_1_13_2 (not z_2_13_2)))
(assert
 (= z_1_13_3 (not z_2_13_3)))
(assert
 (= z_1_13_4 (not z_2_13_4)))
(assert
 (= z_1_13_5 (not z_2_13_5)))
(assert
 (= z_1_14_0 (not z_2_14_0)))
(assert
 (= z_1_14_1 (not z_2_14_1)))
(assert
 (= z_1_14_2 (not z_2_14_2)))
(assert
 (= z_1_14_3 (not z_2_14_3)))
(assert
 (= z_1_15_0 (not z_2_15_0)))
(assert
 (= z_1_15_1 (not z_2_15_1)))
(assert
 (= z_1_15_2 (not z_2_15_2)))
(assert
 (= z_1_15_3 (not z_2_15_3)))
(assert
 (= z_1_15_4 (not z_2_15_4)))
(assert
 (= z_1_15_5 (not z_2_15_5)))
(assert
 (= z_1_16_0 (not z_2_16_0)))
(assert
 (= z_1_16_1 (not z_2_16_1)))
(assert
 (= z_1_16_2 (not z_2_16_2)))
(assert
 (= z_1_16_3 (not z_2_16_3)))
(assert
 (= z_1_16_4 (not z_2_16_4)))
(assert
 (= z_1_17_0 (not z_2_17_0)))
(assert
 (= z_1_17_1 (not z_2_17_1)))
(assert
 (= z_1_17_2 (not z_2_17_2)))
(assert
 (= z_1_17_3 (not z_2_17_3)))
(assert
 (= z_1_17_4 (not z_2_17_4)))
(assert
 (= z_1_17_5 (not z_2_17_5)))
(assert
 (= z_1_18_0 (not z_2_18_0)))
(assert
 (= z_1_18_1 (not z_2_18_1)))
(assert
 (= z_1_18_2 (not z_2_18_2)))
(assert
 (= z_1_18_3 (not z_2_18_3)))
(assert
 (= z_1_18_4 (not z_2_18_4)))
(assert
 (= z_1_18_5 (not z_2_18_5)))
(assert
 (= z_1_18_6 (not z_2_18_6)))
(assert
 (= z_1_18_7 (not z_2_18_7)))
(assert
 (= z_1_19_0 (not z_2_19_0)))
(assert
 (= z_1_19_1 (not z_2_19_1)))
(assert
 (= z_1_19_2 (not z_2_19_2)))
(assert
 (= z_1_19_3 (not z_2_19_3)))
(assert
 (= z_1_19_4 (not z_2_19_4)))
(assert
 (= z_0_0_0 true))
(assert
 (= z_0_1_0 true))
(assert
 (= z_0_2_0 true))
(assert
 (= z_0_3_0 true))
(assert
 (= z_0_4_0 true))
(assert
 (= z_0_5_0 true))
(assert
 (= z_0_6_0 true))
(assert
 (= z_0_7_0 true))
(assert
 (= z_0_8_0 true))
(assert
 (= z_0_9_0 true))
(assert
 (= z_0_10_0 false))
(assert
 (= z_0_11_0 false))
(assert
 (= z_0_12_0 false))
(assert
 (= z_0_13_0 false))
(assert
 (= z_0_14_0 false))
(assert
 (= z_0_15_0 false))
(assert
 (= z_0_16_0 false))
(assert
 (= z_0_17_0 false))
(assert
 (= z_0_18_0 false))
(assert
 (= z_0_19_0 false))
(assert
 (let (($x1605 (= z_2_0_0 z_2_1_0)))
 (and $x1605)))
(assert
 (let (($x1607 (= z_2_0_0 z_2_2_0)))
 (and $x1607)))
(assert
 (let (($x1609 (= z_2_0_0 z_2_3_0)))
 (and $x1609)))
(assert
 (let (($x1611 (= z_2_0_0 z_2_4_0)))
 (and $x1611)))
(assert
 (let (($x1613 (= z_2_0_0 z_2_5_0)))
 (and $x1613)))
(assert
 (let (($x1615 (= z_2_0_0 z_2_6_0)))
 (and $x1615)))
(assert
 (let (($x1617 (= z_2_0_0 z_2_7_0)))
 (and $x1617)))
(assert
 (let (($x1619 (= z_2_0_0 z_2_8_0)))
 (and $x1619)))
(assert
 (let (($x1621 (= z_2_0_0 z_2_9_0)))
 (and $x1621)))
(assert
 (let (($x1623 (= z_2_0_0 z_2_14_3)))
 (and $x1623)))
(assert
 (let (($x1625 (= z_2_0_0 z_2_16_4)))
 (and $x1625)))
(assert
 (let (($x1627 (= z_2_1_0 z_2_2_0)))
 (and $x1627)))
(assert
 (let (($x1629 (= z_2_1_0 z_2_3_0)))
 (and $x1629)))
(assert
 (let (($x1631 (= z_2_1_0 z_2_4_0)))
 (and $x1631)))
(assert
 (let (($x1633 (= z_2_1_0 z_2_5_0)))
 (and $x1633)))
(assert
 (let (($x1635 (= z_2_1_0 z_2_6_0)))
 (and $x1635)))
(assert
 (let (($x1637 (= z_2_1_0 z_2_7_0)))
 (and $x1637)))
(assert
 (let (($x1639 (= z_2_1_0 z_2_8_0)))
 (and $x1639)))
(assert
 (let (($x1641 (= z_2_1_0 z_2_9_0)))
 (and $x1641)))
(assert
 (let (($x1643 (= z_2_1_0 z_2_14_3)))
 (and $x1643)))
(assert
 (let (($x1645 (= z_2_1_0 z_2_16_4)))
 (and $x1645)))
(assert
 (let (($x1647 (= z_2_2_0 z_2_3_0)))
 (and $x1647)))
(assert
 (let (($x1649 (= z_2_2_0 z_2_4_0)))
 (and $x1649)))
(assert
 (let (($x1651 (= z_2_2_0 z_2_5_0)))
 (and $x1651)))
(assert
 (let (($x1653 (= z_2_2_0 z_2_6_0)))
 (and $x1653)))
(assert
 (let (($x1655 (= z_2_2_0 z_2_7_0)))
 (and $x1655)))
(assert
 (let (($x1657 (= z_2_2_0 z_2_8_0)))
 (and $x1657)))
(assert
 (let (($x1659 (= z_2_2_0 z_2_9_0)))
 (and $x1659)))
(assert
 (let (($x1661 (= z_2_2_0 z_2_14_3)))
 (and $x1661)))
(assert
 (let (($x1663 (= z_2_2_0 z_2_16_4)))
 (and $x1663)))
(assert
 (let (($x1665 (= z_2_3_0 z_2_4_0)))
 (and $x1665)))
(assert
 (let (($x1667 (= z_2_3_0 z_2_5_0)))
 (and $x1667)))
(assert
 (let (($x1669 (= z_2_3_0 z_2_6_0)))
 (and $x1669)))
(assert
 (let (($x1671 (= z_2_3_0 z_2_7_0)))
 (and $x1671)))
(assert
 (let (($x1673 (= z_2_3_0 z_2_8_0)))
 (and $x1673)))
(assert
 (let (($x1675 (= z_2_3_0 z_2_9_0)))
 (and $x1675)))
(assert
 (let (($x1677 (= z_2_3_0 z_2_14_3)))
 (and $x1677)))
(assert
 (let (($x1679 (= z_2_3_0 z_2_16_4)))
 (and $x1679)))
(assert
 (let (($x1681 (= z_2_4_0 z_2_5_0)))
 (and $x1681)))
(assert
 (let (($x1683 (= z_2_4_0 z_2_6_0)))
 (and $x1683)))
(assert
 (let (($x1685 (= z_2_4_0 z_2_7_0)))
 (and $x1685)))
(assert
 (let (($x1687 (= z_2_4_0 z_2_8_0)))
 (and $x1687)))
(assert
 (let (($x1689 (= z_2_4_0 z_2_9_0)))
 (and $x1689)))
(assert
 (let (($x1691 (= z_2_4_0 z_2_14_3)))
 (and $x1691)))
(assert
 (let (($x1693 (= z_2_4_0 z_2_16_4)))
 (and $x1693)))
(assert
 (let (($x1695 (= z_2_5_0 z_2_6_0)))
 (and $x1695)))
(assert
 (let (($x1697 (= z_2_5_0 z_2_7_0)))
 (and $x1697)))
(assert
 (let (($x1699 (= z_2_5_0 z_2_8_0)))
 (and $x1699)))
(assert
 (let (($x1701 (= z_2_5_0 z_2_9_0)))
 (and $x1701)))
(assert
 (let (($x1703 (= z_2_5_0 z_2_14_3)))
 (and $x1703)))
(assert
 (let (($x1705 (= z_2_5_0 z_2_16_4)))
 (and $x1705)))
(assert
 (let (($x1707 (= z_2_6_0 z_2_7_0)))
 (and $x1707)))
(assert
 (let (($x1709 (= z_2_6_0 z_2_8_0)))
 (and $x1709)))
(assert
 (let (($x1711 (= z_2_6_0 z_2_9_0)))
 (and $x1711)))
(assert
 (let (($x1713 (= z_2_6_0 z_2_14_3)))
 (and $x1713)))
(assert
 (let (($x1715 (= z_2_6_0 z_2_16_4)))
 (and $x1715)))
(assert
 (let (($x1717 (= z_2_7_0 z_2_8_0)))
 (and $x1717)))
(assert
 (let (($x1719 (= z_2_7_0 z_2_9_0)))
 (and $x1719)))
(assert
 (let (($x1721 (= z_2_7_0 z_2_14_3)))
 (and $x1721)))
(assert
 (let (($x1723 (= z_2_7_0 z_2_16_4)))
 (and $x1723)))
(assert
 (let (($x1725 (= z_2_8_0 z_2_9_0)))
 (and $x1725)))
(assert
 (let (($x1727 (= z_2_8_0 z_2_14_3)))
 (and $x1727)))
(assert
 (let (($x1729 (= z_2_8_0 z_2_16_4)))
 (and $x1729)))
(assert
 (let (($x1731 (= z_2_9_0 z_2_14_3)))
 (and $x1731)))
(assert
 (let (($x1733 (= z_2_9_0 z_2_16_4)))
 (and $x1733)))
(assert
 (let (($x1735 (= z_2_10_0 z_2_11_2)))
 (and $x1735)))
(assert
 (let (($x1737 (= z_2_10_1 z_2_11_3)))
 (and $x1737)))
(assert
 (let (($x1739 (= z_2_10_2 z_2_11_4)))
 (and $x1739)))
(assert
 (let (($x1741 (= z_2_10_1 z_2_19_4)))
 (and $x1741)))
(assert
 (let (($x1743 (= z_2_10_2 z_2_19_3)))
 (and $x1743)))
(assert
 (let (($x1745 (= z_2_11_3 z_2_19_4)))
 (and $x1745)))
(assert
 (let (($x1747 (= z_2_11_4 z_2_19_3)))
 (and $x1747)))
(assert
 (let (($x1749 (= z_2_13_2 z_2_18_7)))
 (and $x1749)))
(assert
 (let (($x1751 (= z_2_13_3 z_2_18_4)))
 (and $x1751)))
(assert
 (let (($x1753 (= z_2_13_4 z_2_18_5)))
 (and $x1753)))
(assert
 (let (($x1755 (= z_2_13_5 z_2_18_6)))
 (and $x1755)))
(assert
 (let (($x1757 (= z_2_14_1 z_2_16_2)))
 (and $x1757)))
(assert
 (let (($x1759 (= z_2_14_2 z_2_16_3)))
 (and $x1759)))
(assert
 (let (($x1761 (= z_2_14_3 z_2_16_4)))
 (and $x1761)))
(assert
 (let (($x1763 (= z_2_15_2 z_2_17_2)))
 (and $x1763)))
(assert
 (let (($x1765 (= z_2_15_3 z_2_17_3)))
 (and $x1765)))
(assert
 (let (($x1767 (= z_2_15_4 z_2_17_4)))
 (and $x1767)))
(assert
 (let (($x1769 (= z_2_15_5 z_2_17_5)))
 (and $x1769)))
(check-sat)

